Welcome to the CBC MILP Solver 
Version: 2.10.7 
Build Date: Feb 14 2022 

command line - cbc inputs/new_no_tr/order/jump_2_10_tiers_input.lp sec 1800 solve solu solutions/new_no_tr/jump_2_10_tiers_input.lp (default strategy 1)
seconds was changed from 1e+100 to 1800
Continuous objective value is 17408 - 0.00 seconds
Cgl0002I 18 variables fixed
Cgl0003I 0 fixed, 2 tightened bounds, 34 strengthened rows, 0 substitutions
Cgl0003I 1 fixed, 1 tightened bounds, 0 strengthened rows, 0 substitutions
Cgl0003I 1 fixed, 1 tightened bounds, 0 strengthened rows, 0 substitutions
Cgl0003I 0 fixed, 0 tightened bounds, 5 strengthened rows, 0 substitutions
Cgl0003I 0 fixed, 0 tightened bounds, 6 strengthened rows, 0 substitutions
Cgl0004I processed model has 179 rows, 67 columns (67 integer (56 of which binary)) and 585 elements
Cutoff increment increased from 1e-05 to 0.9999
Cbc0045I 1 integer variables out of 67 objects (67 integer) have cost of 1 - high priority
Cbc0045I branch on satisfied Y create fake objective Y random cost Y
Cbc0038I Initial state - 36 integers unsatisfied sum - 9.48525
Cbc0038I Pass   1: suminf.    3.01408 (12) obj. 20480 iterations 33
Cbc0038I Pass   2: suminf.    2.78947 (12) obj. 20480 iterations 12
Cbc0038I Pass   3: suminf.    0.00000 (0) obj. 20480 iterations 23
Cbc0038I Solution found of 20480
Cbc0038I Cleaned solution of 20480
Cbc0038I Before mini branch and bound, 30 integers at bound fixed and 0 continuous
Cbc0038I Full problem 179 rows 67 columns, reduced to 59 rows 21 columns
Cbc0038I Mini branch and bound did not improve solution (0.02 seconds)
Cbc0038I Round again with cutoff of 20283.6
Cbc0038I Reduced cost fixing fixed 1 variables on major pass 2
Cbc0038I Pass   4: suminf.    3.48130 (25) obj. 20283 iterations 5
Cbc0038I Pass   5: suminf.    3.65327 (26) obj. 20283.6 iterations 9
Cbc0038I Pass   6: suminf.    2.88055 (9) obj. 20283.6 iterations 37
Cbc0038I Pass   7: suminf.    2.88055 (9) obj. 20283.6 iterations 5
Cbc0038I Pass   8: suminf.    0.63740 (9) obj. 20283.6 iterations 15
Cbc0038I Pass   9: suminf.    0.63740 (9) obj. 20283.6 iterations 19
Cbc0038I Pass  10: suminf.    0.63740 (9) obj. 20283.6 iterations 26
Cbc0038I Pass  11: suminf.    2.88055 (9) obj. 20283.6 iterations 8
Cbc0038I Pass  12: suminf.    7.61014 (27) obj. 20283.6 iterations 26
Cbc0038I Pass  13: suminf.    6.50876 (26) obj. 20283.6 iterations 8
Cbc0038I Pass  14: suminf.    4.49249 (16) obj. 20283.6 iterations 9
Cbc0038I Pass  15: suminf.    0.63740 (9) obj. 20283.6 iterations 21
Cbc0038I Pass  16: suminf.    2.88055 (9) obj. 20283.6 iterations 22
Cbc0038I Pass  17: suminf.    7.65968 (28) obj. 20283.6 iterations 34
Cbc0038I Pass  18: suminf.    2.88055 (9) obj. 20283.6 iterations 24
Cbc0038I Pass  19: suminf.    8.64888 (34) obj. 20283.6 iterations 47
Cbc0038I Pass  20: suminf.    8.03583 (33) obj. 20283.6 iterations 15
Cbc0038I Pass  21: suminf.    4.77220 (22) obj. 20283.6 iterations 41
Cbc0038I Pass  22: suminf.    4.77220 (22) obj. 20283.6 iterations 0
Cbc0038I Pass  23: suminf.    4.53467 (17) obj. 20283.6 iterations 18
Cbc0038I Pass  24: suminf.    4.32607 (21) obj. 20283.6 iterations 7
Cbc0038I Pass  25: suminf.    2.63453 (25) obj. 20283.6 iterations 17
Cbc0038I Pass  26: suminf.    2.40953 (19) obj. 20283.6 iterations 3
Cbc0038I Pass  27: suminf.    4.19687 (29) obj. 20283.6 iterations 22
Cbc0038I Pass  28: suminf.    3.87304 (27) obj. 20283.6 iterations 9
Cbc0038I Pass  29: suminf.    7.34704 (25) obj. 20283.6 iterations 50
Cbc0038I Pass  30: suminf.    6.69204 (25) obj. 20283.6 iterations 10
Cbc0038I Pass  31: suminf.    5.62985 (24) obj. 20283.6 iterations 12
Cbc0038I Pass  32: suminf.    5.31110 (22) obj. 20283.6 iterations 4
Cbc0038I Pass  33: suminf.    1.87365 (20) obj. 20283.6 iterations 13
Cbc0038I Pass  34: suminf.    1.77667 (17) obj. 20283.6 iterations 9
Cbc0038I Pass  35: suminf.    3.38688 (17) obj. 20283.6 iterations 13
Cbc0038I Pass  36: suminf.    5.27338 (30) obj. 20283.6 iterations 14
Cbc0038I Pass  37: suminf.    4.37099 (21) obj. 20283.6 iterations 12
Cbc0038I Pass  38: suminf.    1.77667 (17) obj. 20283.6 iterations 22
Cbc0038I Pass  39: suminf.    3.38688 (17) obj. 20283.6 iterations 15
Cbc0038I Pass  40: suminf.    4.16001 (24) obj. 20283.6 iterations 17
Cbc0038I Pass  41: suminf.    4.32678 (26) obj. 20283.6 iterations 23
Cbc0038I Pass  42: suminf.    3.39346 (23) obj. 20283.6 iterations 12
Cbc0038I Pass  43: suminf.    3.21209 (22) obj. 20283.6 iterations 7
Cbc0038I Pass  44: suminf.    4.53467 (17) obj. 20283.6 iterations 22
Cbc0038I Pass  45: suminf.    4.32607 (19) obj. 20283.6 iterations 3
Cbc0038I Pass  46: suminf.    2.40953 (19) obj. 20283.6 iterations 18
Cbc0038I Pass  47: suminf.    2.40953 (19) obj. 20283.6 iterations 0
Cbc0038I Pass  48: suminf.    3.20961 (27) obj. 20283.6 iterations 14
Cbc0038I Pass  49: suminf.    2.85225 (20) obj. 20283.6 iterations 4
Cbc0038I Pass  50: suminf.    5.07991 (20) obj. 20283.6 iterations 19
Cbc0038I Pass  51: suminf.    3.38688 (17) obj. 20283.6 iterations 4
Cbc0038I Pass  52: suminf.    1.77667 (17) obj. 20283.6 iterations 17
Cbc0038I Pass  53: suminf.    1.77667 (17) obj. 20283.6 iterations 9
Cbc0038I Pass  54: suminf.    1.77667 (17) obj. 20283.6 iterations 5
Cbc0038I Pass  55: suminf.    3.38688 (17) obj. 20283.6 iterations 14
Cbc0038I Pass  56: suminf.    4.76993 (20) obj. 20283.6 iterations 9
Cbc0038I Pass  57: suminf.    3.38688 (17) obj. 20283.6 iterations 18
Cbc0038I Pass  58: suminf.    7.77298 (35) obj. 20283.6 iterations 28
Cbc0038I Pass  59: suminf.    4.43516 (21) obj. 20283.6 iterations 19
Cbc0038I Pass  60: suminf.    0.63740 (9) obj. 20283.6 iterations 14
Cbc0038I Pass  61: suminf.    2.88055 (9) obj. 20283.6 iterations 6
Cbc0038I Pass  62: suminf.    4.26026 (18) obj. 20283.6 iterations 17
Cbc0038I Pass  63: suminf.    2.88055 (9) obj. 20283.6 iterations 10
Cbc0038I Pass  64: suminf.    0.63740 (9) obj. 20283.6 iterations 6
Cbc0038I Pass  65: suminf.    6.69587 (26) obj. 20283.6 iterations 17
Cbc0038I Pass  66: suminf.    3.28112 (20) obj. 20283.6 iterations 10
Cbc0038I Pass  67: suminf.    7.43254 (32) obj. 20283.6 iterations 22
Cbc0038I Pass  68: suminf.    3.24075 (20) obj. 20283.6 iterations 13
Cbc0038I Pass  69: suminf.    3.88055 (13) obj. 20283.6 iterations 21
Cbc0038I Pass  70: suminf.    2.88055 (9) obj. 20283.6 iterations 1
Cbc0038I Pass  71: suminf.    0.63740 (9) obj. 20283.6 iterations 5
Cbc0038I Pass  72: suminf.    3.01085 (24) obj. 20283.6 iterations 19
Cbc0038I Pass  73: suminf.    1.25732 (20) obj. 20283.6 iterations 12
Cbc0038I Pass  74: suminf.    4.49596 (22) obj. 20283.6 iterations 21
Cbc0038I Pass  75: suminf.    4.86128 (24) obj. 20283.6 iterations 3
Cbc0038I Pass  76: suminf.    4.71676 (25) obj. 20283.6 iterations 21
Cbc0038I Pass  77: suminf.    4.52703 (26) obj. 20283.6 iterations 5
Cbc0038I Pass  78: suminf.    3.59563 (16) obj. 20283.6 iterations 21
Cbc0038I Pass  79: suminf.    3.47645 (13) obj. 20283.6 iterations 5
Cbc0038I Pass  80: suminf.    2.07541 (16) obj. 20283.6 iterations 22
Cbc0038I Pass  81: suminf.    4.25726 (17) obj. 20283.6 iterations 17
Cbc0038I Pass  82: suminf.    3.24308 (14) obj. 20283.6 iterations 2
Cbc0038I Pass  83: suminf.    1.96357 (15) obj. 20283.6 iterations 10
Cbc0038I Pass  84: suminf.    0.63740 (9) obj. 20283.6 iterations 11
Cbc0038I Pass  85: suminf.    2.88055 (9) obj. 20283.6 iterations 13
Cbc0038I Pass  86: suminf.    5.62237 (29) obj. 20283.6 iterations 21
Cbc0038I Pass  87: suminf.    5.46268 (22) obj. 20283.6 iterations 9
Cbc0038I Pass  88: suminf.    0.63740 (9) obj. 20283.6 iterations 28
Cbc0038I Pass  89: suminf.    0.63740 (9) obj. 20283.6 iterations 3
Cbc0038I Pass  90: suminf.    2.88055 (9) obj. 20283.6 iterations 9
Cbc0038I Pass  91: suminf.    7.50905 (31) obj. 20283.6 iterations 37
Cbc0038I Pass  92: suminf.    5.04611 (24) obj. 20283.6 iterations 14
Cbc0038I Pass  93: suminf.    3.07428 (27) obj. 20283.6 iterations 38
Cbc0038I Pass  94: suminf.    1.79111 (22) obj. 20283.6 iterations 11
Cbc0038I Pass  95: suminf.    5.55759 (20) obj. 20283.6 iterations 28
Cbc0038I Pass  96: suminf.    5.25964 (19) obj. 20283.6 iterations 2
Cbc0038I Pass  97: suminf.    0.63740 (9) obj. 20283.6 iterations 15
Cbc0038I Pass  98: suminf.    0.63740 (9) obj. 20283.6 iterations 6
Cbc0038I Pass  99: suminf.    2.88055 (9) obj. 20283.6 iterations 5
Cbc0038I Pass 100: suminf.    5.44065 (20) obj. 20283.6 iterations 23
Cbc0038I Pass 101: suminf.    2.88055 (9) obj. 20283.6 iterations 28
Cbc0038I Pass 102: suminf.    0.63740 (9) obj. 20283.6 iterations 13
Cbc0038I Pass 103: suminf.    8.60692 (37) obj. 20283.6 iterations 34
Cbc0038I No solution found this major pass
Cbc0038I Before mini branch and bound, 5 integers at bound fixed and 0 continuous
Cbc0038I Full problem 179 rows 67 columns, reduced to 168 rows 62 columns - 5 fixed gives 149, 53 - still too large
Cbc0038I Mini branch and bound did not improve solution (0.07 seconds)
Cbc0038I After 0.07 seconds - Feasibility pump exiting with objective of 20480 - took 0.06 seconds
Cbc0012I Integer solution of 20480 found by feasibility pump after 0 iterations and 0 nodes (0.07 seconds)
Cbc0038I Full problem 179 rows 67 columns, reduced to 59 rows 21 columns
Cbc0006I The LP relaxation is infeasible or too expensive
Cbc0013I At root node, 0 cuts changed objective from 18525.091 to 18525.091 in 1 passes
Cbc0014I Cut generator 0 (Probing) - 71 row cuts average 2.2 elements, 4 column cuts (4 active)  in 0.001 seconds - new frequency is 1
Cbc0014I Cut generator 1 (Gomory) - 0 row cuts average 0.0 elements, 0 column cuts (0 active)  in 0.000 seconds - new frequency is -100
Cbc0014I Cut generator 2 (Knapsack) - 0 row cuts average 0.0 elements, 0 column cuts (0 active)  in 0.000 seconds - new frequency is -100
Cbc0014I Cut generator 3 (Clique) - 0 row cuts average 0.0 elements, 0 column cuts (0 active)  in 0.000 seconds - new frequency is -100
Cbc0014I Cut generator 4 (MixedIntegerRounding2) - 0 row cuts average 0.0 elements, 0 column cuts (0 active)  in 0.000 seconds - new frequency is -100
Cbc0014I Cut generator 5 (FlowCover) - 0 row cuts average 0.0 elements, 0 column cuts (0 active)  in 0.000 seconds - new frequency is -100
Cbc0014I Cut generator 6 (TwoMirCuts) - 0 row cuts average 0.0 elements, 0 column cuts (0 active)  in 0.000 seconds - new frequency is -100
Cbc0014I Cut generator 7 (ZeroHalf) - 0 row cuts average 0.0 elements, 0 column cuts (0 active)  in 0.000 seconds - new frequency is -100
Cbc0001I Search completed - best objective 20480, took 0 iterations and 0 nodes (0.08 seconds)
Cbc0035I Maximum depth 0, 1 variables fixed on reduced cost
Cuts at root node changed objective from 18525.1 to 18525.1
Probing was tried 1 times and created 75 cuts of which 0 were active after adding rounds of cuts (0.001 seconds)
Gomory was tried 0 times and created 0 cuts of which 0 were active after adding rounds of cuts (0.000 seconds)
Knapsack was tried 0 times and created 0 cuts of which 0 were active after adding rounds of cuts (0.000 seconds)
Clique was tried 0 times and created 0 cuts of which 0 were active after adding rounds of cuts (0.000 seconds)
MixedIntegerRounding2 was tried 0 times and created 0 cuts of which 0 were active after adding rounds of cuts (0.000 seconds)
FlowCover was tried 0 times and created 0 cuts of which 0 were active after adding rounds of cuts (0.000 seconds)
TwoMirCuts was tried 0 times and created 0 cuts of which 0 were active after adding rounds of cuts (0.000 seconds)
ZeroHalf was tried 0 times and created 0 cuts of which 0 were active after adding rounds of cuts (0.000 seconds)

Result - Optimal solution found

Objective value:                20480.00000000
Enumerated nodes:               0
Total iterations:               0
Time (CPU seconds):             0.08
Time (Wallclock seconds):       0.08

Total time (CPU seconds):       0.08   (Wallclock seconds):       0.09

